NAME : Unnamed.761.tour
COMMENT : Length = 761
COMMENT : Found by LKH [Keld Helsgaun] Tue Jan 13 16:45:18 2015
TYPE : TOUR
DIMENSION : 100
TOUR_SECTION
1
2
100
3
95
96
90
89
93
86
84
85
91
97
94
87
75
68
61
52
56
70
48
73
64
44
53
72
19
11
32
36
37
26
41
40
17
7
39
34
81
47
74
66
76
60
43
80
79
65
55
71
46
49
77
28
29
50
69
59
67
6
15
24
14
30
63
38
13
12
20
33
25
18
27
31
5
16
35
8
9
10
22
23
4
21
57
82
42
54
78
45
51
62
58
99
92
88
98
83
-1
EOF
